76
125
87	5
86	4
85	1
84	1
83	4
82	4
81	1
80	8
79	7
78	8
77	2
76	5
75	7
74	5
73	3
72	9
71	6
70	3
69	1
68	7
67	8
66	5
65	5
64	6
63	7
62	3
61	5
60	4
59	6
58	2
57	7
56	9
55	5
54	12
53	11
52	8
51	7
50	3
49	4
48	9
47	5
46	6
45	3
44	5
43	2
42	7
41	8
40	3
39	6
38	6
37	7
36	3
35	9
34	4
33	8
32	5
31	4
30	6
29	4
28	6
27	7
26	2
25	7
24	5
23	3
22	9
21	6
20	8
19	3
18	3
17	3
16	4
15	2
14	5
13	6
12	3
